p cnf 250 2014
1 2 3 4 5 0
6 7 8 9 10 0
11 12 13 14 15 0
16 17 18 19 20 0
21 22 23 24 25 0
26 27 28 29 30 0
31 32 33 34 35 0
36 37 38 39 40 0
41 42 43 44 45 0
46 47 48 49 50 0
51 52 53 54 55 0
56 57 58 59 60 0
61 62 63 64 65 0
66 67 68 69 70 0
71 72 73 74 75 0
76 77 78 79 80 0
81 82 83 84 85 0
86 87 88 89 90 0
91 92 93 94 95 0
96 97 98 99 100 0
101 102 103 104 105 0
106 107 108 109 110 0
111 112 113 114 115 0
116 117 118 119 120 0
121 122 123 124 125 0
126 127 128 129 130 0
131 132 133 134 135 0
136 137 138 139 140 0
141 142 143 144 145 0
146 147 148 149 150 0
151 152 153 154 155 0
156 157 158 159 160 0
161 162 163 164 165 0
166 167 168 169 170 0
171 172 173 174 175 0
176 177 178 179 180 0
181 182 183 184 185 0
186 187 188 189 190 0
191 192 193 194 195 0
196 197 198 199 200 0
201 202 203 204 205 0
206 207 208 209 210 0
211 212 213 214 215 0
216 217 218 219 220 0
221 222 223 224 225 0
226 227 228 229 230 0
231 232 233 234 235 0
236 237 238 239 240 0
241 242 243 244 245 0
246 247 248 249 250 0
-1 -2 0
-1 -3 0
-1 -4 0
-1 -5 0
-2 -3 0
-2 -4 0
-2 -5 0
-3 -4 0
-3 -5 0
-4 -5 0
-6 -7 0
-6 -8 0
-6 -9 0
-6 -10 0
-7 -8 0
-7 -9 0
-7 -10 0
-8 -9 0
-8 -10 0
-9 -10 0
-11 -12 0
-11 -13 0
-11 -14 0
-11 -15 0
-12 -13 0
-12 -14 0
-12 -15 0
-13 -14 0
-13 -15 0
-14 -15 0
-16 -17 0
-16 -18 0
-16 -19 0
-16 -20 0
-17 -18 0
-17 -19 0
-17 -20 0
-18 -19 0
-18 -20 0
-19 -20 0
-21 -22 0
-21 -23 0
-21 -24 0
-21 -25 0
-22 -23 0
-22 -24 0
-22 -25 0
-23 -24 0
-23 -25 0
-24 -25 0
-26 -27 0
-26 -28 0
-26 -29 0
-26 -30 0
-27 -28 0
-27 -29 0
-27 -30 0
-28 -29 0
-28 -30 0
-29 -30 0
-31 -32 0
-31 -33 0
-31 -34 0
-31 -35 0
-32 -33 0
-32 -34 0
-32 -35 0
-33 -34 0
-33 -35 0
-34 -35 0
-36 -37 0
-36 -38 0
-36 -39 0
-36 -40 0
-37 -38 0
-37 -39 0
-37 -40 0
-38 -39 0
-38 -40 0
-39 -40 0
-41 -42 0
-41 -43 0
-41 -44 0
-41 -45 0
-42 -43 0
-42 -44 0
-42 -45 0
-43 -44 0
-43 -45 0
-44 -45 0
-46 -47 0
-46 -48 0
-46 -49 0
-46 -50 0
-47 -48 0
-47 -49 0
-47 -50 0
-48 -49 0
-48 -50 0
-49 -50 0
-51 -52 0
-51 -53 0
-51 -54 0
-51 -55 0
-52 -53 0
-52 -54 0
-52 -55 0
-53 -54 0
-53 -55 0
-54 -55 0
-56 -57 0
-56 -58 0
-56 -59 0
-56 -60 0
-57 -58 0
-57 -59 0
-57 -60 0
-58 -59 0
-58 -60 0
-59 -60 0
-61 -62 0
-61 -63 0
-61 -64 0
-61 -65 0
-62 -63 0
-62 -64 0
-62 -65 0
-63 -64 0
-63 -65 0
-64 -65 0
-66 -67 0
-66 -68 0
-66 -69 0
-66 -70 0
-67 -68 0
-67 -69 0
-67 -70 0
-68 -69 0
-68 -70 0
-69 -70 0
-71 -72 0
-71 -73 0
-71 -74 0
-71 -75 0
-72 -73 0
-72 -74 0
-72 -75 0
-73 -74 0
-73 -75 0
-74 -75 0
-76 -77 0
-76 -78 0
-76 -79 0
-76 -80 0
-77 -78 0
-77 -79 0
-77 -80 0
-78 -79 0
-78 -80 0
-79 -80 0
-81 -82 0
-81 -83 0
-81 -84 0
-81 -85 0
-82 -83 0
-82 -84 0
-82 -85 0
-83 -84 0
-83 -85 0
-84 -85 0
-86 -87 0
-86 -88 0
-86 -89 0
-86 -90 0
-87 -88 0
-87 -89 0
-87 -90 0
-88 -89 0
-88 -90 0
-89 -90 0
-91 -92 0
-91 -93 0
-91 -94 0
-91 -95 0
-92 -93 0
-92 -94 0
-92 -95 0
-93 -94 0
-93 -95 0
-94 -95 0
-96 -97 0
-96 -98 0
-96 -99 0
-96 -100 0
-97 -98 0
-97 -99 0
-97 -100 0
-98 -99 0
-98 -100 0
-99 -100 0
-101 -102 0
-101 -103 0
-101 -104 0
-101 -105 0
-102 -103 0
-102 -104 0
-102 -105 0
-103 -104 0
-103 -105 0
-104 -105 0
-106 -107 0
-106 -108 0
-106 -109 0
-106 -110 0
-107 -108 0
-107 -109 0
-107 -110 0
-108 -109 0
-108 -110 0
-109 -110 0
-111 -112 0
-111 -113 0
-111 -114 0
-111 -115 0
-112 -113 0
-112 -114 0
-112 -115 0
-113 -114 0
-113 -115 0
-114 -115 0
-116 -117 0
-116 -118 0
-116 -119 0
-116 -120 0
-117 -118 0
-117 -119 0
-117 -120 0
-118 -119 0
-118 -120 0
-119 -120 0
-121 -122 0
-121 -123 0
-121 -124 0
-121 -125 0
-122 -123 0
-122 -124 0
-122 -125 0
-123 -124 0
-123 -125 0
-124 -125 0
-126 -127 0
-126 -128 0
-126 -129 0
-126 -130 0
-127 -128 0
-127 -129 0
-127 -130 0
-128 -129 0
-128 -130 0
-129 -130 0
-131 -132 0
-131 -133 0
-131 -134 0
-131 -135 0
-132 -133 0
-132 -134 0
-132 -135 0
-133 -134 0
-133 -135 0
-134 -135 0
-136 -137 0
-136 -138 0
-136 -139 0
-136 -140 0
-137 -138 0
-137 -139 0
-137 -140 0
-138 -139 0
-138 -140 0
-139 -140 0
-141 -142 0
-141 -143 0
-141 -144 0
-141 -145 0
-142 -143 0
-142 -144 0
-142 -145 0
-143 -144 0
-143 -145 0
-144 -145 0
-146 -147 0
-146 -148 0
-146 -149 0
-146 -150 0
-147 -148 0
-147 -149 0
-147 -150 0
-148 -149 0
-148 -150 0
-149 -150 0
-151 -152 0
-151 -153 0
-151 -154 0
-151 -155 0
-152 -153 0
-152 -154 0
-152 -155 0
-153 -154 0
-153 -155 0
-154 -155 0
-156 -157 0
-156 -158 0
-156 -159 0
-156 -160 0
-157 -158 0
-157 -159 0
-157 -160 0
-158 -159 0
-158 -160 0
-159 -160 0
-161 -162 0
-161 -163 0
-161 -164 0
-161 -165 0
-162 -163 0
-162 -164 0
-162 -165 0
-163 -164 0
-163 -165 0
-164 -165 0
-166 -167 0
-166 -168 0
-166 -169 0
-166 -170 0
-167 -168 0
-167 -169 0
-167 -170 0
-168 -169 0
-168 -170 0
-169 -170 0
-171 -172 0
-171 -173 0
-171 -174 0
-171 -175 0
-172 -173 0
-172 -174 0
-172 -175 0
-173 -174 0
-173 -175 0
-174 -175 0
-176 -177 0
-176 -178 0
-176 -179 0
-176 -180 0
-177 -178 0
-177 -179 0
-177 -180 0
-178 -179 0
-178 -180 0
-179 -180 0
-181 -182 0
-181 -183 0
-181 -184 0
-181 -185 0
-182 -183 0
-182 -184 0
-182 -185 0
-183 -184 0
-183 -185 0
-184 -185 0
-186 -187 0
-186 -188 0
-186 -189 0
-186 -190 0
-187 -188 0
-187 -189 0
-187 -190 0
-188 -189 0
-188 -190 0
-189 -190 0
-191 -192 0
-191 -193 0
-191 -194 0
-191 -195 0
-192 -193 0
-192 -194 0
-192 -195 0
-193 -194 0
-193 -195 0
-194 -195 0
-196 -197 0
-196 -198 0
-196 -199 0
-196 -200 0
-197 -198 0
-197 -199 0
-197 -200 0
-198 -199 0
-198 -200 0
-199 -200 0
-201 -202 0
-201 -203 0
-201 -204 0
-201 -205 0
-202 -203 0
-202 -204 0
-202 -205 0
-203 -204 0
-203 -205 0
-204 -205 0
-206 -207 0
-206 -208 0
-206 -209 0
-206 -210 0
-207 -208 0
-207 -209 0
-207 -210 0
-208 -209 0
-208 -210 0
-209 -210 0
-211 -212 0
-211 -213 0
-211 -214 0
-211 -215 0
-212 -213 0
-212 -214 0
-212 -215 0
-213 -214 0
-213 -215 0
-214 -215 0
-216 -217 0
-216 -218 0
-216 -219 0
-216 -220 0
-217 -218 0
-217 -219 0
-217 -220 0
-218 -219 0
-218 -220 0
-219 -220 0
-221 -222 0
-221 -223 0
-221 -224 0
-221 -225 0
-222 -223 0
-222 -224 0
-222 -225 0
-223 -224 0
-223 -225 0
-224 -225 0
-226 -227 0
-226 -228 0
-226 -229 0
-226 -230 0
-227 -228 0
-227 -229 0
-227 -230 0
-228 -229 0
-228 -230 0
-229 -230 0
-231 -232 0
-231 -233 0
-231 -234 0
-231 -235 0
-232 -233 0
-232 -234 0
-232 -235 0
-233 -234 0
-233 -235 0
-234 -235 0
-236 -237 0
-236 -238 0
-236 -239 0
-236 -240 0
-237 -238 0
-237 -239 0
-237 -240 0
-238 -239 0
-238 -240 0
-239 -240 0
-241 -242 0
-241 -243 0
-241 -244 0
-241 -245 0
-242 -243 0
-242 -244 0
-242 -245 0
-243 -244 0
-243 -245 0
-244 -245 0
-246 -247 0
-246 -248 0
-246 -249 0
-246 -250 0
-247 -248 0
-247 -249 0
-247 -250 0
-248 -249 0
-248 -250 0
-249 -250 0
-4 -89 0
-3 -88 0
-4 -90 0
-5 -87 0
-2 -87 0
-5 -90 0
-2 -89 0
-3 -86 0
-4 -86 0
-4 -87 0
-5 -88 0
-5 -89 0
-3 -236 0
-3 -240 0
-2 -239 0
-3 -237 0
-5 -238 0
-3 -239 0
-4 -240 0
-4 -237 0
-2 -238 0
-1 -239 0
-2 -240 0
-4 -238 0
-9 -64 0
-8 -62 0
-7 -65 0
-6 -63 0
-7 -64 0
-8 -61 0
-6 -62 0
-10 -63 0
-6 -64 0
-8 -63 0
-9 -65 0
-9 -61 0
-6 -212 0
-8 -213 0
-10 -214 0
-6 -215 0
-10 -213 0
-9 -214 0
-9 -213 0
-10 -215 0
-7 -214 0
-6 -214 0
-7 -211 0
-10 -212 0
-14 -83 0
-12 -85 0
-12 -84 0
-11 -81 0
-13 -82 0
-15 -85 0
-13 -85 0
-15 -81 0
-12 -82 0
-15 -83 0
-14 -82 0
-15 -82 0
-12 -101 0
-14 -104 0
-15 -105 0
-13 -101 0
-11 -103 0
-12 -104 0
-11 -104 0
-12 -105 0
-12 -102 0
-12 -103 0
-15 -102 0
-14 -102 0
-14 -193 0
-12 -195 0
-12 -192 0
-15 -195 0
-14 -191 0
-14 -195 0
-13 -191 0
-12 -194 0
-13 -193 0
-13 -192 0
-14 -192 0
-15 -194 0
-12 -197 0
-13 -199 0
-12 -196 0
-13 -200 0
-14 -198 0
-14 -197 0
-15 -198 0
-15 -200 0
-15 -197 0
-11 -198 0
-11 -196 0
-14 -200 0
-13 -235 0
-13 -232 0
-15 -232 0
-12 -231 0
-11 -235 0
-13 -231 0
-12 -233 0
-11 -233 0
-13 -234 0
-14 -235 0
-13 -233 0
-15 -231 0
-18 -31 0
-16 -33 0
-18 -32 0
-18 -33 0
-17 -31 0
-19 -31 0
-16 -32 0
-16 -31 0
-20 -35 0
-20 -33 0
-20 -32 0
-19 -34 0
-17 -157 0
-17 -159 0
-19 -158 0
-17 -160 0
-20 -159 0
-18 -158 0
-20 -158 0
-19 -159 0
-16 -157 0
-18 -159 0
-18 -160 0
-16 -158 0
-20 -250 0
-16 -247 0
-16 -250 0
-20 -247 0
-19 -250 0
-18 -247 0
-19 -249 0
-19 -246 0
-17 -249 0
-16 -249 0
-18 -250 0
-19 -247 0
-25 -93 0
-24 -95 0
-22 -92 0
-25 -95 0
-22 -94 0
-23 -93 0
-25 -91 0
-23 -92 0
-24 -92 0
-21 -94 0
-22 -91 0
-25 -92 0
-24 -118 0
-21 -117 0
-23 -119 0
-24 -120 0
-22 -117 0
-25 -116 0
-21 -119 0
-23 -120 0
-22 -116 0
-23 -117 0
-22 -119 0
-25 -120 0
-21 -225 0
-24 -223 0
-25 -223 0
-22 -224 0
-25 -222 0
-23 -225 0
-23 -224 0
-24 -222 0
-22 -222 0
-24 -225 0
-23 -223 0
-22 -223 0
-26 -112 0
-29 -113 0
-30 -115 0
-29 -114 0
-29 -112 0
-27 -113 0
-27 -111 0
-29 -115 0
-30 -111 0
-27 -114 0
-28 -114 0
-30 -113 0
-28 -134 0
-26 -131 0
-26 -135 0
-27 -134 0
-26 -134 0
-26 -133 0
-28 -131 0
-30 -131 0
-28 -135 0
-29 -131 0
-30 -133 0
-29 -132 0
-31 -50 0
-31 -47 0
-34 -48 0
-32 -49 0
-35 -49 0
-31 -46 0
-33 -47 0
-32 -50 0
-35 -48 0
-34 -49 0
-32 -46 0
-35 -47 0
-35 -71 0
-31 -75 0
-34 -75 0
-32 -73 0
-32 -75 0
-33 -72 0
-32 -72 0
-33 -74 0
-35 -74 0
-34 -74 0
-31 -72 0
-32 -71 0
-31 -110 0
-34 -107 0
-32 -107 0
-31 -106 0
-31 -107 0
-32 -106 0
-35 -108 0
-31 -109 0
-35 -107 0
-33 -106 0
-32 -109 0
-35 -110 0
-33 -182 0
-32 -182 0
-31 -181 0
-35 -185 0
-35 -182 0
-31 -182 0
-34 -182 0
-31 -183 0
-32 -185 0
-34 -184 0
-32 -181 0
-31 -185 0
-34 -224 0
-35 -222 0
-31 -225 0
-31 -223 0
-31 -222 0
-35 -224 0
-33 -221 0
-34 -225 0
-34 -223 0
-33 -225 0
-32 -224 0
-34 -221 0
-39 -144 0
-39 -143 0
-36 -144 0
-40 -145 0
-37 -143 0
-38 -141 0
-38 -142 0
-37 -141 0
-36 -141 0
-39 -142 0
-40 -142 0
-37 -145 0
-39 -236 0
-39 -238 0
-40 -237 0
-39 -239 0
-40 -238 0
-39 -237 0
-36 -237 0
-38 -237 0
-40 -236 0
-38 -240 0
-37 -239 0
-37 -240 0
-44 -50 0
-44 -49 0
-43 -48 0
-42 -48 0
-42 -47 0
-43 -50 0
-45 -46 0
-43 -47 0
-42 -49 0
-44 -48 0
-44 -47 0
-45 -48 0
-45 -63 0
-44 -65 0
-41 -65 0
-45 -65 0
-43 -63 0
-45 -64 0
-42 -61 0
-44 -61 0
-43 -65 0
-43 -61 0
-42 -62 0
-41 -63 0
-43 -144 0
-45 -144 0
-41 -142 0
-43 -143 0
-45 -141 0
-44 -141 0
-45 -143 0
-42 -142 0
-43 -142 0
-41 -144 0
-42 -143 0
-44 -143 0
-44 -180 0
-42 -180 0
-42 -178 0
-44 -179 0
-44 -176 0
-43 -177 0
-43 -180 0
-45 -180 0
-41 -177 0
-42 -177 0
-42 -176 0
-45 -176 0
-44 -200 0
-45 -199 0
-41 -198 0
-42 -200 0
-44 -199 0
-45 -198 0
-44 -197 0
-45 -196 0
-42 -196 0
-45 -197 0
-41 -199 0
-41 -200 0
-41 -232 0
-41 -234 0
-45 -232 0
-45 -235 0
-43 -234 0
-45 -234 0
-44 -231 0
-41 -235 0
-45 -231 0
-44 -232 0
-42 -234 0
-42 -235 0
-49 -86 0
-48 -88 0
-49 -89 0
-50 -86 0
-48 -89 0
-46 -86 0
-46 -90 0
-48 -87 0
-48 -90 0
-46 -87 0
-47 -88 0
-47 -90 0
-50 -111 0
-46 -113 0
-46 -111 0
-47 -114 0
-47 -115 0
-48 -113 0
-50 -112 0
-49 -112 0
-49 -111 0
-48 -115 0
-48 -111 0
-47 -112 0
-49 -163 0
-48 -162 0
-48 -165 0
-47 -162 0
-50 -162 0
-49 -165 0
-46 -162 0
-47 -161 0
-47 -163 0
-46 -164 0
-49 -161 0
-50 -165 0
-46 -184 0
-47 -183 0
-48 -183 0
-47 -185 0
-46 -181 0
-49 -182 0
-49 -181 0
-50 -184 0
-46 -182 0
-48 -185 0
-47 -182 0
-46 -185 0
-47 -195 0
-49 -195 0
-49 -194 0
-48 -194 0
-50 -195 0
-46 -192 0
-50 -194 0
-46 -193 0
-48 -193 0
-50 -192 0
-47 -194 0
-47 -192 0
-47 -207 0
-48 -206 0
-47 -208 0
-49 -209 0
-46 -207 0
-50 -207 0
-49 -207 0
-47 -210 0
-48 -207 0
-48 -210 0
-50 -206 0
-47 -206 0
-48 -240 0
-50 -239 0
-50 -237 0
-48 -238 0
-47 -238 0
-49 -240 0
-49 -236 0
-49 -238 0
-49 -239 0
-46 -237 0
-47 -237 0
-50 -240 0
-50 -248 0
-50 -250 0
-46 -248 0
-46 -246 0
-49 -249 0
-49 -248 0
-49 -246 0
-46 -250 0
-47 -247 0
-50 -246 0
-50 -249 0
-47 -249 0
-52 -134 0
-54 -135 0
-55 -132 0
-52 -135 0
-53 -131 0
-51 -133 0
-55 -133 0
-51 -131 0
-52 -132 0
-54 -134 0
-53 -133 0
-54 -132 0
-52 -161 0
-55 -165 0
-51 -161 0
-54 -161 0
-52 -164 0
-53 -161 0
-52 -165 0
-55 -161 0
-53 -165 0
-51 -163 0
-55 -162 0
-51 -165 0
-52 -189 0
-54 -190 0
-54 -186 0
-55 -188 0
-55 -190 0
-54 -189 0
-51 -186 0
-52 -190 0
-53 -187 0
-51 -190 0
-53 -188 0
-52 -187 0
-57 -72 0
-58 -74 0
-56 -71 0
-59 -71 0
-59 -73 0
-57 -74 0
-60 -72 0
-56 -72 0
-60 -74 0
-57 -71 0
-56 -75 0
-58 -75 0
-65 -68 0
-62 -67 0
-63 -70 0
-63 -69 0
-64 -66 0
-61 -66 0
-62 -69 0
-65 -66 0
-65 -67 0
-62 -68 0
-63 -66 0
-65 -70 0
-61 -104 0
-63 -105 0
-63 -101 0
-62 -104 0
-64 -105 0
-65 -101 0
-63 -103 0
-65 -104 0
-62 -101 0
-64 -102 0
-64 -104 0
-64 -103 0
-64 -202 0
-63 -205 0
-62 -203 0
-65 -202 0
-62 -202 0
-64 -203 0
-61 -203 0
-61 -202 0
-64 -204 0
-61 -205 0
-61 -201 0
-64 -201 0
-68 -104 0
-70 -104 0
-67 -105 0
-69 -103 0
-70 -105 0
-69 -104 0
-68 -101 0
-69 -102 0
-67 -102 0
-66 -105 0
-68 -102 0
-68 -103 0
-70 -122 0
-68 -121 0
-68 -123 0
-66 -124 0
-68 -124 0
-67 -122 0
-70 -121 0
-67 -121 0
-69 -124 0
-67 -123 0
-70 -124 0
-69 -121 0
-68 -144 0
-68 -145 0
-67 -141 0
-69 -143 0
-66 -142 0
-67 -143 0
-69 -141 0
-66 -144 0
-67 -145 0
-68 -141 0
-70 -143 0
-70 -145 0
-70 -170 0
-68 -168 0
-67 -170 0
-67 -169 0
-68 -170 0
-66 -168 0
-70 -168 0
-67 -168 0
-68 -167 0
-66 -170 0
-68 -166 0
-66 -166 0
-67 -188 0
-69 -190 0
-66 -187 0
-69 -187 0
-69 -186 0
-70 -188 0
-68 -188 0
-70 -190 0
-67 -190 0
-66 -186 0
-67 -189 0
-67 -186 0
-74 -90 0
-75 -90 0
-73 -90 0
-73 -87 0
-71 -90 0
-71 -87 0
-73 -88 0
-75 -89 0
-73 -86 0
-71 -88 0
-74 -87 0
-73 -89 0
-73 -152 0
-74 -154 0
-72 -155 0
-75 -155 0
-75 -152 0
-74 -152 0
-71 -151 0
-75 -151 0
-73 -154 0
-74 -155 0
-75 -154 0
-72 -154 0
-74 -162 0
-73 -161 0
-72 -162 0
-74 -164 0
-74 -163 0
-72 -165 0
-72 -164 0
-75 -164 0
-73 -165 0
-72 -163 0
-73 -163 0
-75 -165 0
-71 -224 0
-75 -223 0
-72 -224 0
-73 -222 0
-75 -224 0
-75 -221 0
-74 -221 0
-73 -225 0
-73 -223 0
-71 -221 0
-75 -222 0
-72 -223 0
-80 -238 0
-77 -240 0
-76 -236 0
-80 -237 0
-76 -238 0
-77 -239 0
-80 -240 0
-80 -239 0
-79 -240 0
-79 -236 0
-78 -236 0
-78 -237 0
-84 -89 0
-81 -86 0
-82 -87 0
-82 -86 0
-83 -87 0
-84 -87 0
-84 -88 0
-84 -86 0
-81 -90 0
-82 -89 0
-85 -86 0
-85 -90 0
-84 -119 0
-85 -120 0
-84 -117 0
-85 -118 0
-85 -116 0
-81 -119 0
-81 -118 0
-82 -119 0
-83 -118 0
-83 -117 0
-81 -117 0
-82 -117 0
-82 -121 0
-84 -123 0
-84 -122 0
-81 -124 0
-81 -122 0
-83 -123 0
-82 -123 0
-84 -125 0
-85 -122 0
-84 -121 0
-81 -121 0
-82 -125 0
-85 -214 0
-82 -212 0
-81 -214 0
-85 -211 0
-84 -215 0
-81 -213 0
-85 -215 0
-81 -211 0
-84 -213 0
-83 -213 0
-82 -213 0
-85 -213 0
-85 -231 0
-85 -233 0
-81 -235 0
-82 -233 0
-82 -235 0
-83 -233 0
-84 -234 0
-85 -234 0
-83 -234 0
-83 -235 0
-84 -235 0
-83 -231 0
-89 -104 0
-88 -104 0
-90 -105 0
-86 -105 0
-90 -101 0
-88 -105 0
-87 -105 0
-86 -101 0
-87 -104 0
-90 -103 0
-89 -105 0
-88 -103 0
-88 -225 0
-89 -222 0
-90 -225 0
-89 -223 0
-90 -221 0
-87 -223 0
-86 -223 0
-89 -221 0
-90 -223 0
-87 -221 0
-90 -224 0
-89 -225 0
-94 -141 0
-94 -145 0
-91 -142 0
-92 -142 0
-95 -143 0
-94 -143 0
-94 -144 0
-92 -143 0
-93 -142 0
-91 -145 0
-92 -145 0
-91 -141 0
-92 -161 0
-93 -165 0
-92 -163 0
-91 -165 0
-94 -164 0
-92 -164 0
-94 -161 0
-91 -162 0
-92 -162 0
-94 -165 0
-92 -165 0
-95 -161 0
-95 -166 0
-93 -167 0
-91 -166 0
-95 -167 0
-94 -168 0
-95 -169 0
-92 -169 0
-95 -170 0
-91 -170 0
-92 -168 0
-92 -170 0
-95 -168 0
-92 -216 0
-95 -220 0
-92 -219 0
-91 -216 0
-91 -218 0
-92 -218 0
-94 -217 0
-92 -220 0
-95 -219 0
-91 -220 0
-91 -219 0
-93 -217 0
-94 -242 0
-93 -242 0
-94 -243 0
-95 -242 0
-91 -243 0
-91 -242 0
-91 -245 0
-92 -243 0
-91 -241 0
-93 -241 0
-95 -244 0
-92 -245 0
-97 -237 0
-97 -236 0
-100 -238 0
-99 -237 0
-98 -237 0
-98 -238 0
-100 -240 0
-100 -237 0
-96 -236 0
-99 -239 0
-96 -240 0
-97 -240 0
-100 -244 0
-98 -242 0
-96 -241 0
-97 -244 0
-100 -243 0
-99 -241 0
-100 -245 0
-96 -244 0
-97 -242 0
-96 -243 0
-100 -242 0
-100 -241 0
-105 -106 0
-104 -107 0
-103 -106 0
-105 -107 0
-102 -107 0
-101 -108 0
-105 -109 0
-103 -109 0
-105 -110 0
-103 -107 0
-104 -108 0
-101 -107 0
-105 -117 0
-105 -118 0
-101 -116 0
-101 -117 0
-104 -118 0
-104 -117 0
-101 -119 0
-103 -119 0
-103 -120 0
-102 -116 0
-103 -118 0
-101 -120 0
-101 -141 0
-103 -141 0
-103 -144 0
-104 -145 0
-102 -145 0
-103 -143 0
-102 -143 0
-105 -144 0
-105 -143 0
-102 -144 0
-105 -145 0
-104 -144 0
-105 -165 0
-103 -163 0
-105 -163 0
-101 -163 0
-105 -162 0
-105 -164 0
-104 -162 0
-101 -161 0
-102 -163 0
-104 -163 0
-104 -165 0
-102 -164 0
-105 -217 0
-105 -219 0
-101 -218 0
-102 -217 0
-103 -219 0
-104 -216 0
-101 -219 0
-101 -220 0
-104 -218 0
-105 -216 0
-103 -220 0
-104 -219 0
-106 -172 0
-110 -171 0
-110 -174 0
-107 -173 0
-107 -175 0
-109 -173 0
-107 -172 0
-108 -174 0
-109 -174 0
-107 -171 0
-108 -171 0
-109 -171 0
-108 -181 0
-107 -182 0
-106 -185 0
-110 -181 0
-110 -184 0
-108 -185 0
-110 -183 0
-109 -185 0
-108 -182 0
-106 -184 0
-106 -183 0
-109 -184 0
-110 -202 0
-108 -203 0
-107 -205 0
-109 -203 0
-108 -201 0
-110 -205 0
-110 -203 0
-110 -204 0
-108 -202 0
-106 -201 0
-110 -201 0
-108 -205 0
-108 -225 0
-109 -222 0
-106 -223 0
-107 -222 0
-106 -221 0
-109 -221 0
-106 -224 0
-106 -225 0
-108 -224 0
-110 -221 0
-107 -223 0
-107 -225 0
-106 -226 0
-109 -227 0
-106 -228 0
-106 -230 0
-108 -230 0
-110 -227 0
-110 -228 0
-109 -226 0
-109 -229 0
-110 -226 0
-107 -229 0
-110 -230 0
-110 -243 0
-106 -241 0
-107 -245 0
-108 -245 0
-107 -242 0
-107 -244 0
-109 -241 0
-110 -241 0
-110 -244 0
-106 -243 0
-106 -242 0
-108 -241 0
-115 -129 0
-114 -129 0
-113 -128 0
-113 -127 0
-115 -126 0
-114 -130 0
-111 -129 0
-114 -127 0
-112 -127 0
-114 -126 0
-115 -130 0
-112 -128 0
-112 -157 0
-113 -156 0
-112 -158 0
-111 -156 0
-111 -157 0
-115 -156 0
-115 -159 0
-112 -156 0
-114 -158 0
-113 -159 0
-114 -159 0
-114 -157 0
-113 -224 0
-115 -224 0
-115 -225 0
-115 -222 0
-112 -222 0
-114 -224 0
-111 -225 0
-114 -225 0
-112 -221 0
-114 -222 0
-112 -223 0
-113 -225 0
-118 -136 0
-119 -140 0
-118 -139 0
-117 -136 0
-117 -137 0
-117 -139 0
-118 -137 0
-116 -136 0
-120 -137 0
-116 -137 0
-116 -138 0
-117 -138 0
-118 -157 0
-116 -157 0
-119 -158 0
-117 -156 0
-120 -159 0
-120 -156 0
-116 -158 0
-116 -156 0
-120 -160 0
-119 -156 0
-117 -159 0
-118 -159 0
-118 -217 0
-117 -219 0
-118 -220 0
-119 -219 0
-120 -218 0
-117 -220 0
-118 -219 0
-118 -216 0
-119 -217 0
-117 -217 0
-116 -218 0
-118 -218 0
-122 -231 0
-125 -235 0
-125 -231 0
-125 -234 0
-121 -232 0
-121 -235 0
-125 -233 0
-124 -232 0
-124 -231 0
-123 -234 0
-124 -235 0
-123 -231 0
-130 -202 0
-126 -204 0
-127 -204 0
-128 -201 0
-128 -203 0
-129 -204 0
-130 -205 0
-129 -205 0
-127 -203 0
-130 -201 0
-130 -204 0
-126 -205 0
-128 -217 0
-126 -218 0
-130 -217 0
-130 -218 0
-126 -219 0
-129 -217 0
-127 -217 0
-129 -220 0
-129 -219 0
-126 -216 0
-128 -219 0
-129 -218 0
-128 -235 0
-127 -235 0
-127 -231 0
-126 -233 0
-129 -235 0
-127 -232 0
-128 -234 0
-126 -232 0
-130 -234 0
-130 -232 0
-126 -235 0
-128 -233 0
-132 -156 0
-132 -160 0
-132 -157 0
-131 -156 0
-131 -160 0
-133 -156 0
-132 -158 0
-134 -157 0
-133 -157 0
-135 -158 0
-135 -156 0
-135 -159 0
-131 -195 0
-131 -192 0
-131 -194 0
-134 -193 0
-134 -194 0
-132 -192 0
-132 -194 0
-134 -195 0
-132 -191 0
-135 -195 0
-133 -192 0
-131 -191 0
-137 -143 0
-136 -144 0
-137 -145 0
-140 -144 0
-139 -144 0
-139 -143 0
-138 -142 0
-139 -141 0
-139 -142 0
-137 -144 0
-136 -142 0
-140 -143 0
-137 -211 0
-140 -214 0
-139 -211 0
-138 -211 0
-137 -212 0
-136 -211 0
-138 -213 0
-138 -214 0
-136 -214 0
-139 -213 0
-137 -215 0
-136 -212 0
-142 -229 0
-144 -228 0
-145 -229 0
-145 -230 0
-143 -226 0
-141 -227 0
-142 -230 0
-145 -228 0
-141 -228 0
-143 -228 0
-144 -230 0
-144 -227 0
-145 -247 0
-142 -246 0
-144 -248 0
-143 -249 0
-142 -248 0
-144 -249 0
-143 -250 0
-141 -249 0
-145 -248 0
-141 -250 0
-143 -247 0
-141 -247 0
-146 -205 0
-147 -205 0
-147 -201 0
-150 -202 0
-148 -203 0
-148 -204 0
-147 -203 0
-149 -204 0
-149 -201 0
-148 -201 0
-150 -205 0
-149 -203 0
-150 -230 0
-148 -228 0
-147 -229 0
-149 -227 0
-148 -229 0
-148 -226 0
-147 -228 0
-146 -229 0
-149 -226 0
-146 -227 0
-150 -228 0
-147 -230 0
-154 -182 0
-154 -184 0
-151 -181 0
-152 -185 0
-153 -184 0
-155 -184 0
-151 -182 0
-155 -185 0
-151 -183 0
-152 -181 0
-154 -181 0
-152 -184 0
-155 -188 0
-152 -190 0
-154 -189 0
-154 -188 0
-152 -188 0
-153 -190 0
-151 -188 0
-154 -187 0
-152 -186 0
-153 -187 0
-154 -186 0
-151 -190 0
-153 -220 0
-154 -218 0
-154 -216 0
-151 -219 0
-152 -220 0
-155 -217 0
-155 -218 0
-152 -216 0
-153 -217 0
-151 -218 0
-153 -216 0
-151 -216 0
-159 -162 0
-160 -163 0
-156 -161 0
-157 -162 0
-158 -161 0
-160 -165 0
-157 -161 0
-158 -164 0
-156 -162 0
-160 -164 0
-160 -161 0
-159 -163 0
-160 -173 0
-158 -174 0
-157 -174 0
-158 -175 0
-159 -173 0
-157 -175 0
-157 -172 0
-158 -173 0
-160 -171 0
-159 -172 0
-160 -174 0
-160 -175 0
-158 -232 0
-158 -235 0
-157 -231 0
-157 -234 0
-160 -235 0
-160 -233 0
-159 -235 0
-156 -234 0
-160 -231 0
-160 -234 0
-156 -235 0
-159 -233 0
-157 -246 0
-157 -249 0
-160 -247 0
-160 -250 0
-157 -248 0
-158 -246 0
-160 -248 0
-160 -246 0
-157 -250 0
-158 -248 0
-159 -247 0
-158 -249 0
-163 -208 0
-161 -210 0
-164 -206 0
-163 -209 0
-162 -210 0
-161 -207 0
-162 -208 0
-162 -207 0
-162 -206 0
-165 -210 0
-164 -207 0
-162 -209 0
-162 -243 0
-165 -244 0
-162 -244 0
-163 -243 0
-161 -241 0
-164 -244 0
-164 -243 0
-165 -245 0
-163 -245 0
-164 -245 0
-165 -241 0
-161 -243 0
-168 -217 0
-168 -219 0
-169 -216 0
-170 -220 0
-170 -219 0
-166 -216 0
-169 -218 0
-168 -220 0
-167 -219 0
-167 -216 0
-166 -220 0
-166 -217 0
-174 -177 0
-174 -178 0
-172 -177 0
-172 -180 0
-175 -177 0
-172 -178 0
-171 -179 0
-171 -180 0
-171 -176 0
-173 -180 0
-175 -178 0
-173 -177 0
-172 -185 0
-171 -181 0
-174 -183 0
-175 -183 0
-172 -181 0
-173 -182 0
-171 -185 0
-173 -181 0
-171 -183 0
-173 -183 0
-174 -182 0
-175 -184 0
-172 -242 0
-175 -245 0
-174 -245 0
-175 -243 0
-175 -242 0
-171 -244 0
-173 -244 0
-172 -244 0
-172 -241 0
-174 -244 0
-171 -241 0
-171 -243 0
-181 -236 0
-183 -238 0
-184 -239 0
-185 -237 0
-184 -236 0
-185 -239 0
-183 -239 0
-181 -239 0
-185 -238 0
-182 -237 0
-181 -237 0
-182 -238 0
-189 -218 0
-190 -220 0
-190 -218 0
-189 -216 0
-186 -220 0
-189 -220 0
-187 -218 0
-187 -219 0
-186 -218 0
-187 -216 0
-188 -219 0
-190 -219 0
-194 -207 0
-191 -210 0
-194 -210 0
-191 -209 0
-195 -209 0
-192 -206 0
-195 -210 0
-192 -208 0
-195 -208 0
-193 -207 0
-195 -206 0
-193 -210 0
-191 -246 0
-192 -248 0
-195 -246 0
-193 -247 0
-193 -249 0
-194 -247 0
-194 -250 0
-193 -248 0
-191 -250 0
-193 -246 0
-192 -246 0
-192 -250 0
-197 -211 0
-198 -214 0
-199 -211 0
-196 -215 0
-199 -215 0
-199 -214 0
-196 -214 0
-200 -215 0
-197 -214 0
-200 -213 0
-199 -212 0
-198 -213 0
-203 -225 0
-204 -222 0
-203 -224 0
-201 -222 0
-202 -221 0
-205 -223 0
-201 -223 0
-205 -224 0
-201 -224 0
-202 -224 0
-201 -225 0
-201 -221 0
-209 -242 0
-210 -241 0
-206 -242 0
-210 -244 0
-209 -244 0
-210 -245 0
-209 -241 0
-207 -245 0
-208 -242 0
-207 -244 0
-209 -243 0
-207 -241 0
-215 -243 0
-211 -244 0
-213 -245 0
-212 -242 0
-214 -245 0
-212 -244 0
-213 -244 0
-211 -243 0
-214 -244 0
-214 -242 0
-212 -241 0
-215 -245 0
-218 -230 0
-216 -230 0
-216 -228 0
-218 -229 0
-219 -229 0
-220 -227 0
-218 -227 0
-219 -230 0
-218 -226 0
-218 -228 0
-216 -229 0
-219 -228 0
-226 -235 0
-228 -231 0
-229 -234 0
-227 -232 0
-228 -232 0
-227 -233 0
-226 -232 0
-230 -235 0
-230 -234 0
-227 -234 0
-228 -234 0
-227 -231 0
-237 -250 0
-240 -250 0
-240 -247 0
-238 -248 0
-237 -248 0
-239 -246 0
-238 -246 0
-239 -248 0
-236 -249 0
-240 -246 0
-236 -247 0
-237 -246 0
